% Instance for pentominoes model generated using https://github.com/zayenz/minizinc-pentominoes-generator
% Instance generated for board size 10 with 15 tiles using 42 as seed
% Generated board
%    522222dd44
%    55222ddd44
%    556c2dddbb
%    136c22ddff
%    13cc99ddde
%    11cc9888ee
%    18889888ee
%    18888888ee
%    ggggg888ee
%    ggggg8887e

size = 10;
tiles = 15;
expressions = [
    "( ([2 3 4 5 6 7 8 9 10 11 12 13 14 15 16]* 1{1} [2 3 4 5 6 7 8 9 10 11 12 13 14 15 16]{9} [2 3 4 5 6 7 8 9 10 11 12 13 14 15 16] 1{1} [2 3 4 5 6 7 8 9 10 11 12 13 14 15 16]{9} [2 3 4 5 6 7 8 9 10 11 12 13 14 15 16] 1{2} [2 3 4 5 6 7 8 9 10 11 12 13 14 15 16]{8} [2 3 4 5 6 7 8 9 10 11 12 13 14 15 16] 1{1} [2 3 4 5 6 7 8 9 10 11 12 13 14 15 16]{9} [2 3 4 5 6 7 8 9 10 11 12 13 14 15 16] 1{1} [2 3 4 5 6 7 8 9 10 11 12 13 14 15 16]*) | ([2 3 4 5 6 7 8 9 10 11 12 13 14 15 16]* 1{5} [2 3 4 5 6 7 8 9 10 11 12 13 14 15 16]{3} [2 3 4 5 6 7 8 9 10 11 12 13 14 15 16] [2 3 4 5 6 7 8 9 10 11 12 13 14 15 16]{4} 1{1} [2 3 4 5 6 7 8 9 10 11 12 13 14 15 16]*) | ([2 3 4 5 6 7 8 9 10 11 12 13 14 15 16]* 1{1} [2 3 4 5 6 7 8 9 10 11 12 13 14 15 16] [2 3 4 5 6 7 8 9 10 11 12 13 14 15 16]{9} 1{1} [2 3 4 5 6 7 8 9 10 11 12 13 14 15 16] [2 3 4 5 6 7 8 9 10 11 12 13 14 15 16]{8} 1{2} [2 3 4 5 6 7 8 9 10 11 12 13 14 15 16] [2 3 4 5 6 7 8 9 10 11 12 13 14 15 16]{9} 1{1} [2 3 4 5 6 7 8 9 10 11 12 13 14 15 16] [2 3 4 5 6 7 8 9 10 11 12 13 14 15 16]{9} 1{1} [2 3 4 5 6 7 8 9 10 11 12 13 14 15 16]*) | ([2 3 4 5 6 7 8 9 10 11 12 13 14 15 16]* 1{1} [2 3 4 5 6 7 8 9 10 11 12 13 14 15 16]{4} [2 3 4 5 6 7 8 9 10 11 12 13 14 15 16] [2 3 4 5 6 7 8 9 10 11 12 13 14 15 16]{3} 1{5} [2 3 4 5 6 7 8 9 10 11 12 13 14 15 16]*) | ([2 3 4 5 6 7 8 9 10 11 12 13 14 15 16]* 1{5} [2 3 4 5 6 7 8 9 10 11 12 13 14 15 16]{2} [2 3 4 5 6 7 8 9 10 11 12 13 14 15 16] [2 3 4 5 6 7 8 9 10 11 12 13 14 15 16]{5} 1{1} [2 3 4 5 6 7 8 9 10 11 12 13 14 15 16]*) | ([2 3 4 5 6 7 8 9 10 11 12 13 14 15 16]* 1{1} [2 3 4 5 6 7 8 9 10 11 12 13 14 15 16]{5} [2 3 4 5 6 7 8 9 10 11 12 13 14 15 16] [2 3 4 5 6 7 8 9 10 11 12 13 14 15 16]{2} 1{5} [2 3 4 5 6 7 8 9 10 11 12 13 14 15 16]*) )",
    "( ([1 3 4 5 6 7 8 9 10 11 12 13 14 15 16]* 2{5} [1 3 4 5 6 7 8 9 10 11 12 13 14 15 16]{4} [1 3 4 5 6 7 8 9 10 11 12 13 14 15 16] [1 3 4 5 6 7 8 9 10 11 12 13 14 15 16]{2} 2{3} [1 3 4 5 6 7 8 9 10 11 12 13 14 15 16]{5} [1 3 4 5 6 7 8 9 10 11 12 13 14 15 16] [1 3 4 5 6 7 8 9 10 11 12 13 14 15 16]{4} 2{1} [1 3 4 5 6 7 8 9 10 11 12 13 14 15 16]{5} [1 3 4 5 6 7 8 9 10 11 12 13 14 15 16] [1 3 4 5 6 7 8 9 10 11 12 13 14 15 16]{4} 2{2} [1 3 4 5 6 7 8 9 10 11 12 13 14 15 16]*) | ([1 3 4 5 6 7 8 9 10 11 12 13 14 15 16]* 2{1} [1 3 4 5 6 7 8 9 10 11 12 13 14 15 16] [1 3 4 5 6 7 8 9 10 11 12 13 14 15 16]{8} 2{2} [1 3 4 5 6 7 8 9 10 11 12 13 14 15 16] [1 3 4 5 6 7 8 9 10 11 12 13 14 15 16]{8} 2{2} [1 3 4 5 6 7 8 9 10 11 12 13 14 15 16] [1 3 4 5 6 7 8 9 10 11 12 13 14 15 16]{6} 2{4} [1 3 4 5 6 7 8 9 10 11 12 13 14 15 16] [1 3 4 5 6 7 8 9 10 11 12 13 14 15 16]{6} 2{1} [1 3 4 5 6 7 8 9 10 11 12 13 14 15 16]{2} 2{1} [1 3 4 5 6 7 8 9 10 11 12 13 14 15 16]*) | ([1 3 4 5 6 7 8 9 10 11 12 13 14 15 16]* 2{2} [1 3 4 5 6 7 8 9 10 11 12 13 14 15 16]{4} [1 3 4 5 6 7 8 9 10 11 12 13 14 15 16] [1 3 4 5 6 7 8 9 10 11 12 13 14 15 16]{5} 2{1} [1 3 4 5 6 7 8 9 10 11 12 13 14 15 16]{4} [1 3 4 5 6 7 8 9 10 11 12 13 14 15 16] [1 3 4 5 6 7 8 9 10 11 12 13 14 15 16]{5} 2{3} [1 3 4 5 6 7 8 9 10 11 12 13 14 15 16]{2} [1 3 4 5 6 7 8 9 10 11 12 13 14 15 16] [1 3 4 5 6 7 8 9 10 11 12 13 14 15 16]{4} 2{5} [1 3 4 5 6 7 8 9 10 11 12 13 14 15 16]*) | ([1 3 4 5 6 7 8 9 10 11 12 13 14 15 16]* 2{1} [1 3 4 5 6 7 8 9 10 11 12 13 14 15 16]{2} 2{1} [1 3 4 5 6 7 8 9 10 11 12 13 14 15 16]{6} [1 3 4 5 6 7 8 9 10 11 12 13 14 15 16] 2{4} [1 3 4 5 6 7 8 9 10 11 12 13 14 15 16]{6} [1 3 4 5 6 7 8 9 10 11 12 13 14 15 16] 2{2} [1 3 4 5 6 7 8 9 10 11 12 13 14 15 16]{8} [1 3 4 5 6 7 8 9 10 11 12 13 14 15 16] 2{2} [1 3 4 5 6 7 8 9 10 11 12 13 14 15 16]{8} [1 3 4 5 6 7 8 9 10 11 12 13 14 15 16] 2{1} [1 3 4 5 6 7 8 9 10 11 12 13 14 15 16]*) | ([1 3 4 5 6 7 8 9 10 11 12 13 14 15 16]* 2{5} [1 3 4 5 6 7 8 9 10 11 12 13 14 15 16]{1} [1 3 4 5 6 7 8 9 10 11 12 13 14 15 16] [1 3 4 5 6 7 8 9 10 11 12 13 14 15 16]{5} 2{3} [1 3 4 5 6 7 8 9 10 11 12 13 14 15 16]{2} [1 3 4 5 6 7 8 9 10 11 12 13 14 15 16] [1 3 4 5 6 7 8 9 10 11 12 13 14 15 16]{5} 2{1} [1 3 4 5 6 7 8 9 10 11 12 13 14 15 16]{4} [1 3 4 5 6 7 8 9 10 11 12 13 14 15 16] [1 3 4 5 6 7 8 9 10 11 12 13 14 15 16]{4} 2{2} [1 3 4 5 6 7 8 9 10 11 12 13 14 15 16]*) | ([1 3 4 5 6 7 8 9 10 11 12 13 14 15 16]* 2{1} [1 3 4 5 6 7 8 9 10 11 12 13 14 15 16]{9} [1 3 4 5 6 7 8 9 10 11 12 13 14 15 16] 2{2} [1 3 4 5 6 7 8 9 10 11 12 13 14 15 16]{8} [1 3 4 5 6 7 8 9 10 11 12 13 14 15 16] 2{2} [1 3 4 5 6 7 8 9 10 11 12 13 14 15 16]{8} [1 3 4 5 6 7 8 9 10 11 12 13 14 15 16] 2{4} [1 3 4 5 6 7 8 9 10 11 12 13 14 15 16]{6} [1 3 4 5 6 7 8 9 10 11 12 13 14 15 16] 2{1} [1 3 4 5 6 7 8 9 10 11 12 13 14 15 16]{2} 2{1} [1 3 4 5 6 7 8 9 10 11 12 13 14 15 16]*) | ([1 3 4 5 6 7 8 9 10 11 12 13 14 15 16]* 2{2} [1 3 4 5 6 7 8 9 10 11 12 13 14 15 16]{4} [1 3 4 5 6 7 8 9 10 11 12 13 14 15 16] [1 3 4 5 6 7 8 9 10 11 12 13 14 15 16]{4} 2{1} [1 3 4 5 6 7 8 9 10 11 12 13 14 15 16]{5} [1 3 4 5 6 7 8 9 10 11 12 13 14 15 16] [1 3 4 5 6 7 8 9 10 11 12 13 14 15 16]{2} 2{3} [1 3 4 5 6 7 8 9 10 11 12 13 14 15 16]{5} [1 3 4 5 6 7 8 9 10 11 12 13 14 15 16] [1 3 4 5 6 7 8 9 10 11 12 13 14 15 16]{1} 2{5} [1 3 4 5 6 7 8 9 10 11 12 13 14 15 16]*) | ([1 3 4 5 6 7 8 9 10 11 12 13 14 15 16]* 2{1} [1 3 4 5 6 7 8 9 10 11 12 13 14 15 16]{2} 2{1} [1 3 4 5 6 7 8 9 10 11 12 13 14 15 16] [1 3 4 5 6 7 8 9 10 11 12 13 14 15 16]{6} 2{4} [1 3 4 5 6 7 8 9 10 11 12 13 14 15 16] [1 3 4 5 6 7 8 9 10 11 12 13 14 15 16]{8} 2{2} [1 3 4 5 6 7 8 9 10 11 12 13 14 15 16] [1 3 4 5 6 7 8 9 10 11 12 13 14 15 16]{8} 2{2} [1 3 4 5 6 7 8 9 10 11 12 13 14 15 16] [1 3 4 5 6 7 8 9 10 11 12 13 14 15 16]{9} 2{1} [1 3 4 5 6 7 8 9 10 11 12 13 14 15 16]*) )",
    "( ([1 2 4 5 6 7 8 9 10 11 12 13 14 15 16]* 3{1} [1 2 4 5 6 7 8 9 10 11 12 13 14 15 16]{8} [1 2 4 5 6 7 8 9 10 11 12 13 14 15 16] [1 2 4 5 6 7 8 9 10 11 12 13 14 15 16]{1} 3{1} [1 2 4 5 6 7 8 9 10 11 12 13 14 15 16]*) | ([1 2 4 5 6 7 8 9 10 11 12 13 14 15 16]* 3{2} [1 2 4 5 6 7 8 9 10 11 12 13 14 15 16]*) | ([1 2 4 5 6 7 8 9 10 11 12 13 14 15 16]* 3{1} [1 2 4 5 6 7 8 9 10 11 12 13 14 15 16]{1} [1 2 4 5 6 7 8 9 10 11 12 13 14 15 16] [1 2 4 5 6 7 8 9 10 11 12 13 14 15 16]{8} 3{1} [1 2 4 5 6 7 8 9 10 11 12 13 14 15 16]*) )",
    "( ([1 2 3 5 6 7 8 9 10 11 12 13 14 15 16]* 4{2} [1 2 3 5 6 7 8 9 10 11 12 13 14 15 16] [1 2 3 5 6 7 8 9 10 11 12 13 14 15 16]{8} 4{2} [1 2 3 5 6 7 8 9 10 11 12 13 14 15 16]*) | ([1 2 3 5 6 7 8 9 10 11 12 13 14 15 16]* 4{2} [1 2 3 5 6 7 8 9 10 11 12 13 14 15 16]{8} [1 2 3 5 6 7 8 9 10 11 12 13 14 15 16] 4{2} [1 2 3 5 6 7 8 9 10 11 12 13 14 15 16]*) )",
    "( ([1 2 3 4 6 7 8 9 10 11 12 13 14 15 16]* 5{1} [1 2 3 4 6 7 8 9 10 11 12 13 14 15 16]{9} [1 2 3 4 6 7 8 9 10 11 12 13 14 15 16] 5{2} [1 2 3 4 6 7 8 9 10 11 12 13 14 15 16]{8} [1 2 3 4 6 7 8 9 10 11 12 13 14 15 16] 5{2} [1 2 3 4 6 7 8 9 10 11 12 13 14 15 16]*) | ([1 2 3 4 6 7 8 9 10 11 12 13 14 15 16]* 5{3} [1 2 3 4 6 7 8 9 10 11 12 13 14 15 16] [1 2 3 4 6 7 8 9 10 11 12 13 14 15 16]{7} 5{2} [1 2 3 4 6 7 8 9 10 11 12 13 14 15 16]*) | ([1 2 3 4 6 7 8 9 10 11 12 13 14 15 16]* 5{2} [1 2 3 4 6 7 8 9 10 11 12 13 14 15 16] [1 2 3 4 6 7 8 9 10 11 12 13 14 15 16]{8} 5{2} [1 2 3 4 6 7 8 9 10 11 12 13 14 15 16] [1 2 3 4 6 7 8 9 10 11 12 13 14 15 16]{9} 5{1} [1 2 3 4 6 7 8 9 10 11 12 13 14 15 16]*) | ([1 2 3 4 6 7 8 9 10 11 12 13 14 15 16]* 5{2} [1 2 3 4 6 7 8 9 10 11 12 13 14 15 16]{7} [1 2 3 4 6 7 8 9 10 11 12 13 14 15 16] 5{3} [1 2 3 4 6 7 8 9 10 11 12 13 14 15 16]*) | ([1 2 3 4 6 7 8 9 10 11 12 13 14 15 16]* 5{1} [1 2 3 4 6 7 8 9 10 11 12 13 14 15 16] [1 2 3 4 6 7 8 9 10 11 12 13 14 15 16]{8} 5{2} [1 2 3 4 6 7 8 9 10 11 12 13 14 15 16] [1 2 3 4 6 7 8 9 10 11 12 13 14 15 16]{8} 5{2} [1 2 3 4 6 7 8 9 10 11 12 13 14 15 16]*) | ([1 2 3 4 6 7 8 9 10 11 12 13 14 15 16]* 5{3} [1 2 3 4 6 7 8 9 10 11 12 13 14 15 16]{7} [1 2 3 4 6 7 8 9 10 11 12 13 14 15 16] [1 2 3 4 6 7 8 9 10 11 12 13 14 15 16]{1} 5{2} [1 2 3 4 6 7 8 9 10 11 12 13 14 15 16]*) | ([1 2 3 4 6 7 8 9 10 11 12 13 14 15 16]* 5{2} [1 2 3 4 6 7 8 9 10 11 12 13 14 15 16]{8} [1 2 3 4 6 7 8 9 10 11 12 13 14 15 16] 5{2} [1 2 3 4 6 7 8 9 10 11 12 13 14 15 16]{8} [1 2 3 4 6 7 8 9 10 11 12 13 14 15 16] 5{1} [1 2 3 4 6 7 8 9 10 11 12 13 14 15 16]*) | ([1 2 3 4 6 7 8 9 10 11 12 13 14 15 16]* 5{2} [1 2 3 4 6 7 8 9 10 11 12 13 14 15 16]{1} [1 2 3 4 6 7 8 9 10 11 12 13 14 15 16] [1 2 3 4 6 7 8 9 10 11 12 13 14 15 16]{7} 5{3} [1 2 3 4 6 7 8 9 10 11 12 13 14 15 16]*) )",
    "( ([1 2 3 4 5 7 8 9 10 11 12 13 14 15 16]* 6{1} [1 2 3 4 5 7 8 9 10 11 12 13 14 15 16]{7} [1 2 3 4 5 7 8 9 10 11 12 13 14 15 16] [1 2 3 4 5 7 8 9 10 11 12 13 14 15 16]{2} 6{1} [1 2 3 4 5 7 8 9 10 11 12 13 14 15 16]*) | ([1 2 3 4 5 7 8 9 10 11 12 13 14 15 16]* 6{2} [1 2 3 4 5 7 8 9 10 11 12 13 14 15 16]*) | ([1 2 3 4 5 7 8 9 10 11 12 13 14 15 16]* 6{1} [1 2 3 4 5 7 8 9 10 11 12 13 14 15 16]{2} [1 2 3 4 5 7 8 9 10 11 12 13 14 15 16] [1 2 3 4 5 7 8 9 10 11 12 13 14 15 16]{7} 6{1} [1 2 3 4 5 7 8 9 10 11 12 13 14 15 16]*) )",
    "( ([1 2 3 4 5 6 8 9 10 11 12 13 14 15 16]* 7{1} [1 2 3 4 5 6 8 9 10 11 12 13 14 15 16]*) )",
    "( ([1 2 3 4 5 6 7 9 10 11 12 13 14 15 16]* 8{3} [1 2 3 4 5 6 7 9 10 11 12 13 14 15 16]{2} [1 2 3 4 5 6 7 9 10 11 12 13 14 15 16] [1 2 3 4 5 6 7 9 10 11 12 13 14 15 16]{1} 8{3} [1 2 3 4 5 6 7 9 10 11 12 13 14 15 16]{1} 8{3} [1 2 3 4 5 6 7 9 10 11 12 13 14 15 16]{2} [1 2 3 4 5 6 7 9 10 11 12 13 14 15 16] [1 2 3 4 5 6 7 9 10 11 12 13 14 15 16]{1} 8{7} [1 2 3 4 5 6 7 9 10 11 12 13 14 15 16]{2} [1 2 3 4 5 6 7 9 10 11 12 13 14 15 16] [1 2 3 4 5 6 7 9 10 11 12 13 14 15 16]{5} 8{3} [1 2 3 4 5 6 7 9 10 11 12 13 14 15 16]{2} [1 2 3 4 5 6 7 9 10 11 12 13 14 15 16] [1 2 3 4 5 6 7 9 10 11 12 13 14 15 16]{5} 8{3} [1 2 3 4 5 6 7 9 10 11 12 13 14 15 16]*) | ([1 2 3 4 5 6 7 9 10 11 12 13 14 15 16]* 8{2} [1 2 3 4 5 6 7 9 10 11 12 13 14 15 16]{6} [1 2 3 4 5 6 7 9 10 11 12 13 14 15 16] [1 2 3 4 5 6 7 9 10 11 12 13 14 15 16]{2} 8{2} [1 2 3 4 5 6 7 9 10 11 12 13 14 15 16]{6} [1 2 3 4 5 6 7 9 10 11 12 13 14 15 16] [1 2 3 4 5 6 7 9 10 11 12 13 14 15 16]{2} 8{2} [1 2 3 4 5 6 7 9 10 11 12 13 14 15 16]{6} [1 2 3 4 5 6 7 9 10 11 12 13 14 15 16] [1 2 3 4 5 6 7 9 10 11 12 13 14 15 16]{2} 8{1} [1 2 3 4 5 6 7 9 10 11 12 13 14 15 16]{7} [1 2 3 4 5 6 7 9 10 11 12 13 14 15 16] 8{5} [1 2 3 4 5 6 7 9 10 11 12 13 14 15 16]{5} [1 2 3 4 5 6 7 9 10 11 12 13 14 15 16] 8{5} [1 2 3 4 5 6 7 9 10 11 12 13 14 15 16]{5} [1 2 3 4 5 6 7 9 10 11 12 13 14 15 16] 8{5} [1 2 3 4 5 6 7 9 10 11 12 13 14 15 16]*) | ([1 2 3 4 5 6 7 9 10 11 12 13 14 15 16]* 8{3} [1 2 3 4 5 6 7 9 10 11 12 13 14 15 16]{5} [1 2 3 4 5 6 7 9 10 11 12 13 14 15 16] [1 2 3 4 5 6 7 9 10 11 12 13 14 15 16]{2} 8{3} [1 2 3 4 5 6 7 9 10 11 12 13 14 15 16]{5} [1 2 3 4 5 6 7 9 10 11 12 13 14 15 16] [1 2 3 4 5 6 7 9 10 11 12 13 14 15 16]{2} 8{7} [1 2 3 4 5 6 7 9 10 11 12 13 14 15 16]{1} [1 2 3 4 5 6 7 9 10 11 12 13 14 15 16] [1 2 3 4 5 6 7 9 10 11 12 13 14 15 16]{2} 8{3} [1 2 3 4 5 6 7 9 10 11 12 13 14 15 16]{1} 8{3} [1 2 3 4 5 6 7 9 10 11 12 13 14 15 16]{1} [1 2 3 4 5 6 7 9 10 11 12 13 14 15 16] [1 2 3 4 5 6 7 9 10 11 12 13 14 15 16]{2} 8{3} [1 2 3 4 5 6 7 9 10 11 12 13 14 15 16]*) | ([1 2 3 4 5 6 7 9 10 11 12 13 14 15 16]* 8{5} [1 2 3 4 5 6 7 9 10 11 12 13 14 15 16] [1 2 3 4 5 6 7 9 10 11 12 13 14 15 16]{5} 8{5} [1 2 3 4 5 6 7 9 10 11 12 13 14 15 16] [1 2 3 4 5 6 7 9 10 11 12 13 14 15 16]{5} 8{5} [1 2 3 4 5 6 7 9 10 11 12 13 14 15 16] [1 2 3 4 5 6 7 9 10 11 12 13 14 15 16]{7} 8{1} [1 2 3 4 5 6 7 9 10 11 12 13 14 15 16]{2} [1 2 3 4 5 6 7 9 10 11 12 13 14 15 16] [1 2 3 4 5 6 7 9 10 11 12 13 14 15 16]{6} 8{2} [1 2 3 4 5 6 7 9 10 11 12 13 14 15 16]{2} [1 2 3 4 5 6 7 9 10 11 12 13 14 15 16] [1 2 3 4 5 6 7 9 10 11 12 13 14 15 16]{6} 8{2} [1 2 3 4 5 6 7 9 10 11 12 13 14 15 16]{2} [1 2 3 4 5 6 7 9 10 11 12 13 14 15 16] [1 2 3 4 5 6 7 9 10 11 12 13 14 15 16]{6} 8{2} [1 2 3 4 5 6 7 9 10 11 12 13 14 15 16]*) | ([1 2 3 4 5 6 7 9 10 11 12 13 14 15 16]* 8{3} [1 2 3 4 5 6 7 9 10 11 12 13 14 15 16]{5} [1 2 3 4 5 6 7 9 10 11 12 13 14 15 16] [1 2 3 4 5 6 7 9 10 11 12 13 14 15 16]{2} 8{3} [1 2 3 4 5 6 7 9 10 11 12 13 14 15 16]{1} 8{3} [1 2 3 4 5 6 7 9 10 11 12 13 14 15 16]{1} [1 2 3 4 5 6 7 9 10 11 12 13 14 15 16] [1 2 3 4 5 6 7 9 10 11 12 13 14 15 16]{2} 8{7} [1 2 3 4 5 6 7 9 10 11 12 13 14 15 16]{1} [1 2 3 4 5 6 7 9 10 11 12 13 14 15 16] [1 2 3 4 5 6 7 9 10 11 12 13 14 15 16]{2} 8{3} [1 2 3 4 5 6 7 9 10 11 12 13 14 15 16]{5} [1 2 3 4 5 6 7 9 10 11 12 13 14 15 16] [1 2 3 4 5 6 7 9 10 11 12 13 14 15 16]{2} 8{3} [1 2 3 4 5 6 7 9 10 11 12 13 14 15 16]*) | ([1 2 3 4 5 6 7 9 10 11 12 13 14 15 16]* 8{2} [1 2 3 4 5 6 7 9 10 11 12 13 14 15 16]{2} [1 2 3 4 5 6 7 9 10 11 12 13 14 15 16] [1 2 3 4 5 6 7 9 10 11 12 13 14 15 16]{6} 8{2} [1 2 3 4 5 6 7 9 10 11 12 13 14 15 16]{2} [1 2 3 4 5 6 7 9 10 11 12 13 14 15 16] [1 2 3 4 5 6 7 9 10 11 12 13 14 15 16]{6} 8{2} [1 2 3 4 5 6 7 9 10 11 12 13 14 15 16]{2} [1 2 3 4 5 6 7 9 10 11 12 13 14 15 16] [1 2 3 4 5 6 7 9 10 11 12 13 14 15 16]{7} 8{1} [1 2 3 4 5 6 7 9 10 11 12 13 14 15 16]{2} [1 2 3 4 5 6 7 9 10 11 12 13 14 15 16] [1 2 3 4 5 6 7 9 10 11 12 13 14 15 16]{5} 8{5} [1 2 3 4 5 6 7 9 10 11 12 13 14 15 16] [1 2 3 4 5 6 7 9 10 11 12 13 14 15 16]{5} 8{5} [1 2 3 4 5 6 7 9 10 11 12 13 14 15 16] [1 2 3 4 5 6 7 9 10 11 12 13 14 15 16]{5} 8{5} [1 2 3 4 5 6 7 9 10 11 12 13 14 15 16]*) | ([1 2 3 4 5 6 7 9 10 11 12 13 14 15 16]* 8{3} [1 2 3 4 5 6 7 9 10 11 12 13 14 15 16]{2} [1 2 3 4 5 6 7 9 10 11 12 13 14 15 16] [1 2 3 4 5 6 7 9 10 11 12 13 14 15 16]{5} 8{3} [1 2 3 4 5 6 7 9 10 11 12 13 14 15 16]{2} [1 2 3 4 5 6 7 9 10 11 12 13 14 15 16] [1 2 3 4 5 6 7 9 10 11 12 13 14 15 16]{1} 8{7} [1 2 3 4 5 6 7 9 10 11 12 13 14 15 16]{2} [1 2 3 4 5 6 7 9 10 11 12 13 14 15 16] [1 2 3 4 5 6 7 9 10 11 12 13 14 15 16]{1} 8{3} [1 2 3 4 5 6 7 9 10 11 12 13 14 15 16]{1} 8{3} [1 2 3 4 5 6 7 9 10 11 12 13 14 15 16]{2} [1 2 3 4 5 6 7 9 10 11 12 13 14 15 16] [1 2 3 4 5 6 7 9 10 11 12 13 14 15 16]{5} 8{3} [1 2 3 4 5 6 7 9 10 11 12 13 14 15 16]*) | ([1 2 3 4 5 6 7 9 10 11 12 13 14 15 16]* 8{5} [1 2 3 4 5 6 7 9 10 11 12 13 14 15 16]{5} [1 2 3 4 5 6 7 9 10 11 12 13 14 15 16] 8{5} [1 2 3 4 5 6 7 9 10 11 12 13 14 15 16]{5} [1 2 3 4 5 6 7 9 10 11 12 13 14 15 16] 8{5} [1 2 3 4 5 6 7 9 10 11 12 13 14 15 16]{5} [1 2 3 4 5 6 7 9 10 11 12 13 14 15 16] [1 2 3 4 5 6 7 9 10 11 12 13 14 15 16]{2} 8{1} [1 2 3 4 5 6 7 9 10 11 12 13 14 15 16]{7} [1 2 3 4 5 6 7 9 10 11 12 13 14 15 16] [1 2 3 4 5 6 7 9 10 11 12 13 14 15 16]{2} 8{2} [1 2 3 4 5 6 7 9 10 11 12 13 14 15 16]{6} [1 2 3 4 5 6 7 9 10 11 12 13 14 15 16] [1 2 3 4 5 6 7 9 10 11 12 13 14 15 16]{2} 8{2} [1 2 3 4 5 6 7 9 10 11 12 13 14 15 16]{6} [1 2 3 4 5 6 7 9 10 11 12 13 14 15 16] [1 2 3 4 5 6 7 9 10 11 12 13 14 15 16]{2} 8{2} [1 2 3 4 5 6 7 9 10 11 12 13 14 15 16]*) )",
    "( ([1 2 3 4 5 6 7 8 10 11 12 13 14 15 16]* 9{2} [1 2 3 4 5 6 7 8 10 11 12 13 14 15 16]{4} [1 2 3 4 5 6 7 8 10 11 12 13 14 15 16] [1 2 3 4 5 6 7 8 10 11 12 13 14 15 16]{4} 9{1} [1 2 3 4 5 6 7 8 10 11 12 13 14 15 16]{5} [1 2 3 4 5 6 7 8 10 11 12 13 14 15 16] [1 2 3 4 5 6 7 8 10 11 12 13 14 15 16]{4} 9{1} [1 2 3 4 5 6 7 8 10 11 12 13 14 15 16]*) | ([1 2 3 4 5 6 7 8 10 11 12 13 14 15 16]* 9{3} [1 2 3 4 5 6 7 8 10 11 12 13 14 15 16]{4} [1 2 3 4 5 6 7 8 10 11 12 13 14 15 16] [1 2 3 4 5 6 7 8 10 11 12 13 14 15 16]{5} 9{1} [1 2 3 4 5 6 7 8 10 11 12 13 14 15 16]*) | ([1 2 3 4 5 6 7 8 10 11 12 13 14 15 16]* 9{1} [1 2 3 4 5 6 7 8 10 11 12 13 14 15 16]{4} [1 2 3 4 5 6 7 8 10 11 12 13 14 15 16] [1 2 3 4 5 6 7 8 10 11 12 13 14 15 16]{5} 9{1} [1 2 3 4 5 6 7 8 10 11 12 13 14 15 16]{4} [1 2 3 4 5 6 7 8 10 11 12 13 14 15 16] [1 2 3 4 5 6 7 8 10 11 12 13 14 15 16]{4} 9{2} [1 2 3 4 5 6 7 8 10 11 12 13 14 15 16]*) | ([1 2 3 4 5 6 7 8 10 11 12 13 14 15 16]* 9{1} [1 2 3 4 5 6 7 8 10 11 12 13 14 15 16]{5} [1 2 3 4 5 6 7 8 10 11 12 13 14 15 16] [1 2 3 4 5 6 7 8 10 11 12 13 14 15 16]{4} 9{3} [1 2 3 4 5 6 7 8 10 11 12 13 14 15 16]*) | ([1 2 3 4 5 6 7 8 10 11 12 13 14 15 16]* 9{2} [1 2 3 4 5 6 7 8 10 11 12 13 14 15 16]{4} [1 2 3 4 5 6 7 8 10 11 12 13 14 15 16] [1 2 3 4 5 6 7 8 10 11 12 13 14 15 16]{5} 9{1} [1 2 3 4 5 6 7 8 10 11 12 13 14 15 16]{4} [1 2 3 4 5 6 7 8 10 11 12 13 14 15 16] [1 2 3 4 5 6 7 8 10 11 12 13 14 15 16]{5} 9{1} [1 2 3 4 5 6 7 8 10 11 12 13 14 15 16]*) | ([1 2 3 4 5 6 7 8 10 11 12 13 14 15 16]* 9{3} [1 2 3 4 5 6 7 8 10 11 12 13 14 15 16]{3} [1 2 3 4 5 6 7 8 10 11 12 13 14 15 16] [1 2 3 4 5 6 7 8 10 11 12 13 14 15 16]{4} 9{1} [1 2 3 4 5 6 7 8 10 11 12 13 14 15 16]*) | ([1 2 3 4 5 6 7 8 10 11 12 13 14 15 16]* 9{1} [1 2 3 4 5 6 7 8 10 11 12 13 14 15 16]{5} [1 2 3 4 5 6 7 8 10 11 12 13 14 15 16] [1 2 3 4 5 6 7 8 10 11 12 13 14 15 16]{4} 9{1} [1 2 3 4 5 6 7 8 10 11 12 13 14 15 16]{5} [1 2 3 4 5 6 7 8 10 11 12 13 14 15 16] [1 2 3 4 5 6 7 8 10 11 12 13 14 15 16]{4} 9{2} [1 2 3 4 5 6 7 8 10 11 12 13 14 15 16]*) | ([1 2 3 4 5 6 7 8 10 11 12 13 14 15 16]* 9{1} [1 2 3 4 5 6 7 8 10 11 12 13 14 15 16]{4} [1 2 3 4 5 6 7 8 10 11 12 13 14 15 16] [1 2 3 4 5 6 7 8 10 11 12 13 14 15 16]{3} 9{3} [1 2 3 4 5 6 7 8 10 11 12 13 14 15 16]*) )",
    "( ([1 2 3 4 5 6 7 8 9 11 12 13 14 15 16]* 10{2} [1 2 3 4 5 6 7 8 9 11 12 13 14 15 16]*) | ([1 2 3 4 5 6 7 8 9 11 12 13 14 15 16]* 10{1} [1 2 3 4 5 6 7 8 9 11 12 13 14 15 16]{2} [1 2 3 4 5 6 7 8 9 11 12 13 14 15 16] [1 2 3 4 5 6 7 8 9 11 12 13 14 15 16]{7} 10{1} [1 2 3 4 5 6 7 8 9 11 12 13 14 15 16]*) | ([1 2 3 4 5 6 7 8 9 11 12 13 14 15 16]* 10{1} [1 2 3 4 5 6 7 8 9 11 12 13 14 15 16]{7} [1 2 3 4 5 6 7 8 9 11 12 13 14 15 16] [1 2 3 4 5 6 7 8 9 11 12 13 14 15 16]{2} 10{1} [1 2 3 4 5 6 7 8 9 11 12 13 14 15 16]*) )",
    "( ([1 2 3 4 5 6 7 8 9 10 12 13 14 15 16]* 11{1} [1 2 3 4 5 6 7 8 9 10 12 13 14 15 16]{6} [1 2 3 4 5 6 7 8 9 10 12 13 14 15 16] [1 2 3 4 5 6 7 8 9 10 12 13 14 15 16]{3} 11{1} [1 2 3 4 5 6 7 8 9 10 12 13 14 15 16]{6} [1 2 3 4 5 6 7 8 9 10 12 13 14 15 16] [1 2 3 4 5 6 7 8 9 10 12 13 14 15 16]{2} 11{2} [1 2 3 4 5 6 7 8 9 10 12 13 14 15 16]{6} [1 2 3 4 5 6 7 8 9 10 12 13 14 15 16] [1 2 3 4 5 6 7 8 9 10 12 13 14 15 16]{2} 11{2} [1 2 3 4 5 6 7 8 9 10 12 13 14 15 16]*) | ([1 2 3 4 5 6 7 8 9 10 12 13 14 15 16]* 11{2} [1 2 3 4 5 6 7 8 9 10 12 13 14 15 16]{4} [1 2 3 4 5 6 7 8 9 10 12 13 14 15 16] [1 2 3 4 5 6 7 8 9 10 12 13 14 15 16]{4} 11{4} [1 2 3 4 5 6 7 8 9 10 12 13 14 15 16]*) | ([1 2 3 4 5 6 7 8 9 10 12 13 14 15 16]* 11{2} [1 2 3 4 5 6 7 8 9 10 12 13 14 15 16]{2} [1 2 3 4 5 6 7 8 9 10 12 13 14 15 16] [1 2 3 4 5 6 7 8 9 10 12 13 14 15 16]{6} 11{2} [1 2 3 4 5 6 7 8 9 10 12 13 14 15 16]{2} [1 2 3 4 5 6 7 8 9 10 12 13 14 15 16] [1 2 3 4 5 6 7 8 9 10 12 13 14 15 16]{6} 11{1} [1 2 3 4 5 6 7 8 9 10 12 13 14 15 16]{3} [1 2 3 4 5 6 7 8 9 10 12 13 14 15 16] [1 2 3 4 5 6 7 8 9 10 12 13 14 15 16]{6} 11{1} [1 2 3 4 5 6 7 8 9 10 12 13 14 15 16]*) | ([1 2 3 4 5 6 7 8 9 10 12 13 14 15 16]* 11{4} [1 2 3 4 5 6 7 8 9 10 12 13 14 15 16]{4} [1 2 3 4 5 6 7 8 9 10 12 13 14 15 16] [1 2 3 4 5 6 7 8 9 10 12 13 14 15 16]{4} 11{2} [1 2 3 4 5 6 7 8 9 10 12 13 14 15 16]*) | ([1 2 3 4 5 6 7 8 9 10 12 13 14 15 16]* 11{1} [1 2 3 4 5 6 7 8 9 10 12 13 14 15 16]{3} [1 2 3 4 5 6 7 8 9 10 12 13 14 15 16] [1 2 3 4 5 6 7 8 9 10 12 13 14 15 16]{6} 11{1} [1 2 3 4 5 6 7 8 9 10 12 13 14 15 16]{3} [1 2 3 4 5 6 7 8 9 10 12 13 14 15 16] [1 2 3 4 5 6 7 8 9 10 12 13 14 15 16]{6} 11{2} [1 2 3 4 5 6 7 8 9 10 12 13 14 15 16]{2} [1 2 3 4 5 6 7 8 9 10 12 13 14 15 16] [1 2 3 4 5 6 7 8 9 10 12 13 14 15 16]{6} 11{2} [1 2 3 4 5 6 7 8 9 10 12 13 14 15 16]*) | ([1 2 3 4 5 6 7 8 9 10 12 13 14 15 16]* 11{2} [1 2 3 4 5 6 7 8 9 10 12 13 14 15 16]{4} [1 2 3 4 5 6 7 8 9 10 12 13 14 15 16] [1 2 3 4 5 6 7 8 9 10 12 13 14 15 16]{2} 11{4} [1 2 3 4 5 6 7 8 9 10 12 13 14 15 16]*) | ([1 2 3 4 5 6 7 8 9 10 12 13 14 15 16]* 11{2} [1 2 3 4 5 6 7 8 9 10 12 13 14 15 16]{6} [1 2 3 4 5 6 7 8 9 10 12 13 14 15 16] [1 2 3 4 5 6 7 8 9 10 12 13 14 15 16]{2} 11{2} [1 2 3 4 5 6 7 8 9 10 12 13 14 15 16]{6} [1 2 3 4 5 6 7 8 9 10 12 13 14 15 16] [1 2 3 4 5 6 7 8 9 10 12 13 14 15 16]{3} 11{1} [1 2 3 4 5 6 7 8 9 10 12 13 14 15 16]{6} [1 2 3 4 5 6 7 8 9 10 12 13 14 15 16] [1 2 3 4 5 6 7 8 9 10 12 13 14 15 16]{3} 11{1} [1 2 3 4 5 6 7 8 9 10 12 13 14 15 16]*) | ([1 2 3 4 5 6 7 8 9 10 12 13 14 15 16]* 11{4} [1 2 3 4 5 6 7 8 9 10 12 13 14 15 16]{2} [1 2 3 4 5 6 7 8 9 10 12 13 14 15 16] [1 2 3 4 5 6 7 8 9 10 12 13 14 15 16]{4} 11{2} [1 2 3 4 5 6 7 8 9 10 12 13 14 15 16]*) )",
    "( ([1 2 3 4 5 6 7 8 9 10 11 13 14 15 16]* 12{2} [1 2 3 4 5 6 7 8 9 10 11 13 14 15 16]{2} [1 2 3 4 5 6 7 8 9 10 11 13 14 15 16] [1 2 3 4 5 6 7 8 9 10 11 13 14 15 16]{5} 12{3} [1 2 3 4 5 6 7 8 9 10 11 13 14 15 16]{2} [1 2 3 4 5 6 7 8 9 10 11 13 14 15 16] [1 2 3 4 5 6 7 8 9 10 11 13 14 15 16]{5} 12{3} [1 2 3 4 5 6 7 8 9 10 11 13 14 15 16]{2} [1 2 3 4 5 6 7 8 9 10 11 13 14 15 16] [1 2 3 4 5 6 7 8 9 10 11 13 14 15 16]{6} 12{2} [1 2 3 4 5 6 7 8 9 10 11 13 14 15 16]{2} [1 2 3 4 5 6 7 8 9 10 11 13 14 15 16] [1 2 3 4 5 6 7 8 9 10 11 13 14 15 16]{6} 12{3} [1 2 3 4 5 6 7 8 9 10 11 13 14 15 16]*) | ([1 2 3 4 5 6 7 8 9 10 11 13 14 15 16]* 12{2} [1 2 3 4 5 6 7 8 9 10 11 13 14 15 16]{1} [1 2 3 4 5 6 7 8 9 10 11 13 14 15 16] [1 2 3 4 5 6 7 8 9 10 11 13 14 15 16]{5} 12{5} [1 2 3 4 5 6 7 8 9 10 11 13 14 15 16] [1 2 3 4 5 6 7 8 9 10 11 13 14 15 16]{5} 12{5} [1 2 3 4 5 6 7 8 9 10 11 13 14 15 16] [1 2 3 4 5 6 7 8 9 10 11 13 14 15 16]{5} 12{1} [1 2 3 4 5 6 7 8 9 10 11 13 14 15 16]*) | ([1 2 3 4 5 6 7 8 9 10 11 13 14 15 16]* 12{3} [1 2 3 4 5 6 7 8 9 10 11 13 14 15 16]{6} [1 2 3 4 5 6 7 8 9 10 11 13 14 15 16] [1 2 3 4 5 6 7 8 9 10 11 13 14 15 16]{2} 12{2} [1 2 3 4 5 6 7 8 9 10 11 13 14 15 16]{6} [1 2 3 4 5 6 7 8 9 10 11 13 14 15 16] [1 2 3 4 5 6 7 8 9 10 11 13 14 15 16]{2} 12{3} [1 2 3 4 5 6 7 8 9 10 11 13 14 15 16]{5} [1 2 3 4 5 6 7 8 9 10 11 13 14 15 16] [1 2 3 4 5 6 7 8 9 10 11 13 14 15 16]{2} 12{3} [1 2 3 4 5 6 7 8 9 10 11 13 14 15 16]{5} [1 2 3 4 5 6 7 8 9 10 11 13 14 15 16] [1 2 3 4 5 6 7 8 9 10 11 13 14 15 16]{2} 12{2} [1 2 3 4 5 6 7 8 9 10 11 13 14 15 16]*) | ([1 2 3 4 5 6 7 8 9 10 11 13 14 15 16]* 12{1} [1 2 3 4 5 6 7 8 9 10 11 13 14 15 16]{5} [1 2 3 4 5 6 7 8 9 10 11 13 14 15 16] 12{5} [1 2 3 4 5 6 7 8 9 10 11 13 14 15 16]{5} [1 2 3 4 5 6 7 8 9 10 11 13 14 15 16] 12{5} [1 2 3 4 5 6 7 8 9 10 11 13 14 15 16]{5} [1 2 3 4 5 6 7 8 9 10 11 13 14 15 16] [1 2 3 4 5 6 7 8 9 10 11 13 14 15 16]{1} 12{2} [1 2 3 4 5 6 7 8 9 10 11 13 14 15 16]*) | ([1 2 3 4 5 6 7 8 9 10 11 13 14 15 16]* 12{2} [1 2 3 4 5 6 7 8 9 10 11 13 14 15 16]{6} [1 2 3 4 5 6 7 8 9 10 11 13 14 15 16] [1 2 3 4 5 6 7 8 9 10 11 13 14 15 16]{2} 12{3} [1 2 3 4 5 6 7 8 9 10 11 13 14 15 16]{5} [1 2 3 4 5 6 7 8 9 10 11 13 14 15 16] [1 2 3 4 5 6 7 8 9 10 11 13 14 15 16]{2} 12{3} [1 2 3 4 5 6 7 8 9 10 11 13 14 15 16]{5} [1 2 3 4 5 6 7 8 9 10 11 13 14 15 16] [1 2 3 4 5 6 7 8 9 10 11 13 14 15 16]{2} 12{2} [1 2 3 4 5 6 7 8 9 10 11 13 14 15 16]{6} [1 2 3 4 5 6 7 8 9 10 11 13 14 15 16] [1 2 3 4 5 6 7 8 9 10 11 13 14 15 16]{1} 12{3} [1 2 3 4 5 6 7 8 9 10 11 13 14 15 16]*) | ([1 2 3 4 5 6 7 8 9 10 11 13 14 15 16]* 12{2} [1 2 3 4 5 6 7 8 9 10 11 13 14 15 16]{7} [1 2 3 4 5 6 7 8 9 10 11 13 14 15 16] 12{5} [1 2 3 4 5 6 7 8 9 10 11 13 14 15 16]{5} [1 2 3 4 5 6 7 8 9 10 11 13 14 15 16] 12{5} [1 2 3 4 5 6 7 8 9 10 11 13 14 15 16]{5} [1 2 3 4 5 6 7 8 9 10 11 13 14 15 16] [1 2 3 4 5 6 7 8 9 10 11 13 14 15 16]{4} 12{1} [1 2 3 4 5 6 7 8 9 10 11 13 14 15 16]*) | ([1 2 3 4 5 6 7 8 9 10 11 13 14 15 16]* 12{3} [1 2 3 4 5 6 7 8 9 10 11 13 14 15 16]{1} [1 2 3 4 5 6 7 8 9 10 11 13 14 15 16] [1 2 3 4 5 6 7 8 9 10 11 13 14 15 16]{6} 12{2} [1 2 3 4 5 6 7 8 9 10 11 13 14 15 16]{2} [1 2 3 4 5 6 7 8 9 10 11 13 14 15 16] [1 2 3 4 5 6 7 8 9 10 11 13 14 15 16]{5} 12{3} [1 2 3 4 5 6 7 8 9 10 11 13 14 15 16]{2} [1 2 3 4 5 6 7 8 9 10 11 13 14 15 16] [1 2 3 4 5 6 7 8 9 10 11 13 14 15 16]{5} 12{3} [1 2 3 4 5 6 7 8 9 10 11 13 14 15 16]{2} [1 2 3 4 5 6 7 8 9 10 11 13 14 15 16] [1 2 3 4 5 6 7 8 9 10 11 13 14 15 16]{6} 12{2} [1 2 3 4 5 6 7 8 9 10 11 13 14 15 16]*) | ([1 2 3 4 5 6 7 8 9 10 11 13 14 15 16]* 12{1} [1 2 3 4 5 6 7 8 9 10 11 13 14 15 16]{4} [1 2 3 4 5 6 7 8 9 10 11 13 14 15 16] [1 2 3 4 5 6 7 8 9 10 11 13 14 15 16]{5} 12{5} [1 2 3 4 5 6 7 8 9 10 11 13 14 15 16] [1 2 3 4 5 6 7 8 9 10 11 13 14 15 16]{5} 12{5} [1 2 3 4 5 6 7 8 9 10 11 13 14 15 16] [1 2 3 4 5 6 7 8 9 10 11 13 14 15 16]{7} 12{2} [1 2 3 4 5 6 7 8 9 10 11 13 14 15 16]*) )",
    "( ([1 2 3 4 5 6 7 8 9 10 11 12 14 15 16]* 13{1} [1 2 3 4 5 6 7 8 9 10 11 12 14 15 16] [1 2 3 4 5 6 7 8 9 10 11 12 14 15 16]{8} 13{2} [1 2 3 4 5 6 7 8 9 10 11 12 14 15 16] [1 2 3 4 5 6 7 8 9 10 11 12 14 15 16]{8} 13{2} [1 2 3 4 5 6 7 8 9 10 11 12 14 15 16] [1 2 3 4 5 6 7 8 9 10 11 12 14 15 16]{8} 13{2} [1 2 3 4 5 6 7 8 9 10 11 12 14 15 16] [1 2 3 4 5 6 7 8 9 10 11 12 14 15 16]{8} 13{2} [1 2 3 4 5 6 7 8 9 10 11 12 14 15 16] [1 2 3 4 5 6 7 8 9 10 11 12 14 15 16]{9} 13{1} [1 2 3 4 5 6 7 8 9 10 11 12 14 15 16]*) | ([1 2 3 4 5 6 7 8 9 10 11 12 14 15 16]* 13{4} [1 2 3 4 5 6 7 8 9 10 11 12 14 15 16]{5} [1 2 3 4 5 6 7 8 9 10 11 12 14 15 16] 13{6} [1 2 3 4 5 6 7 8 9 10 11 12 14 15 16]*) | ([1 2 3 4 5 6 7 8 9 10 11 12 14 15 16]* 13{1} [1 2 3 4 5 6 7 8 9 10 11 12 14 15 16]{9} [1 2 3 4 5 6 7 8 9 10 11 12 14 15 16] 13{2} [1 2 3 4 5 6 7 8 9 10 11 12 14 15 16]{8} [1 2 3 4 5 6 7 8 9 10 11 12 14 15 16] 13{2} [1 2 3 4 5 6 7 8 9 10 11 12 14 15 16]{8} [1 2 3 4 5 6 7 8 9 10 11 12 14 15 16] 13{2} [1 2 3 4 5 6 7 8 9 10 11 12 14 15 16]{8} [1 2 3 4 5 6 7 8 9 10 11 12 14 15 16] 13{2} [1 2 3 4 5 6 7 8 9 10 11 12 14 15 16]{8} [1 2 3 4 5 6 7 8 9 10 11 12 14 15 16] 13{1} [1 2 3 4 5 6 7 8 9 10 11 12 14 15 16]*) | ([1 2 3 4 5 6 7 8 9 10 11 12 14 15 16]* 13{6} [1 2 3 4 5 6 7 8 9 10 11 12 14 15 16] [1 2 3 4 5 6 7 8 9 10 11 12 14 15 16]{5} 13{4} [1 2 3 4 5 6 7 8 9 10 11 12 14 15 16]*) | ([1 2 3 4 5 6 7 8 9 10 11 12 14 15 16]* 13{4} [1 2 3 4 5 6 7 8 9 10 11 12 14 15 16]{1} [1 2 3 4 5 6 7 8 9 10 11 12 14 15 16] [1 2 3 4 5 6 7 8 9 10 11 12 14 15 16]{4} 13{6} [1 2 3 4 5 6 7 8 9 10 11 12 14 15 16]*) | ([1 2 3 4 5 6 7 8 9 10 11 12 14 15 16]* 13{6} [1 2 3 4 5 6 7 8 9 10 11 12 14 15 16]{4} [1 2 3 4 5 6 7 8 9 10 11 12 14 15 16] [1 2 3 4 5 6 7 8 9 10 11 12 14 15 16]{1} 13{4} [1 2 3 4 5 6 7 8 9 10 11 12 14 15 16]*) )",
    "( ([1 2 3 4 5 6 7 8 9 10 11 12 13 15 16]* 14{2} [1 2 3 4 5 6 7 8 9 10 11 12 13 15 16]*) | ([1 2 3 4 5 6 7 8 9 10 11 12 13 15 16]* 14{1} [1 2 3 4 5 6 7 8 9 10 11 12 13 15 16]{3} [1 2 3 4 5 6 7 8 9 10 11 12 13 15 16] [1 2 3 4 5 6 7 8 9 10 11 12 13 15 16]{6} 14{1} [1 2 3 4 5 6 7 8 9 10 11 12 13 15 16]*) | ([1 2 3 4 5 6 7 8 9 10 11 12 13 15 16]* 14{1} [1 2 3 4 5 6 7 8 9 10 11 12 13 15 16]{6} [1 2 3 4 5 6 7 8 9 10 11 12 13 15 16] [1 2 3 4 5 6 7 8 9 10 11 12 13 15 16]{3} 14{1} [1 2 3 4 5 6 7 8 9 10 11 12 13 15 16]*) )",
    "( ([1 2 3 4 5 6 7 8 9 10 11 12 13 14 16]* 15{5} [1 2 3 4 5 6 7 8 9 10 11 12 13 14 16]{5} [1 2 3 4 5 6 7 8 9 10 11 12 13 14 16] 15{5} [1 2 3 4 5 6 7 8 9 10 11 12 13 14 16]*) | ([1 2 3 4 5 6 7 8 9 10 11 12 13 14 16]* 15{2} [1 2 3 4 5 6 7 8 9 10 11 12 13 14 16]{8} [1 2 3 4 5 6 7 8 9 10 11 12 13 14 16] 15{2} [1 2 3 4 5 6 7 8 9 10 11 12 13 14 16]{8} [1 2 3 4 5 6 7 8 9 10 11 12 13 14 16] 15{2} [1 2 3 4 5 6 7 8 9 10 11 12 13 14 16]{8} [1 2 3 4 5 6 7 8 9 10 11 12 13 14 16] 15{2} [1 2 3 4 5 6 7 8 9 10 11 12 13 14 16]{8} [1 2 3 4 5 6 7 8 9 10 11 12 13 14 16] 15{2} [1 2 3 4 5 6 7 8 9 10 11 12 13 14 16]*) | ([1 2 3 4 5 6 7 8 9 10 11 12 13 14 16]* 15{5} [1 2 3 4 5 6 7 8 9 10 11 12 13 14 16] [1 2 3 4 5 6 7 8 9 10 11 12 13 14 16]{5} 15{5} [1 2 3 4 5 6 7 8 9 10 11 12 13 14 16]*) | ([1 2 3 4 5 6 7 8 9 10 11 12 13 14 16]* 15{2} [1 2 3 4 5 6 7 8 9 10 11 12 13 14 16] [1 2 3 4 5 6 7 8 9 10 11 12 13 14 16]{8} 15{2} [1 2 3 4 5 6 7 8 9 10 11 12 13 14 16] [1 2 3 4 5 6 7 8 9 10 11 12 13 14 16]{8} 15{2} [1 2 3 4 5 6 7 8 9 10 11 12 13 14 16] [1 2 3 4 5 6 7 8 9 10 11 12 13 14 16]{8} 15{2} [1 2 3 4 5 6 7 8 9 10 11 12 13 14 16] [1 2 3 4 5 6 7 8 9 10 11 12 13 14 16]{8} 15{2} [1 2 3 4 5 6 7 8 9 10 11 12 13 14 16]*) )",
];
